17	4
19	17	24	12	
0	0	0	0	0	3	2	3	4	
6	7	3	4	0	3	11	16	17	
3	7	5	9	0	3	5	10	11	
10	0	5	6	0	3	6	8	9	
6	2	4	0	7	1	17	
225	7	7	3	0	1	7	
50	7	6	9	0	1	13	
200	0	9	10	10	3	12	17	17	
150	0	0	1	3	3	15	17	17	
175	0	5	2	0	1	17	
75	8	1	7	3	1	17	
225	7	0	10	3	2	16	17	
10	9	2	0	5	1	14	
4	5	8	7	3	3	17	17	17	
5	0	0	9	0	2	17	17	
1	2	2	0	4	2	17	17	
0	0	0	0	0	0	
